simplex/ex1.lp
Minimize                                                            

		f: 3x + 5y - 6z + d                                                                                                          

Subject To                                                          

        c1: d = 3                                               

        c2: 3x + 5y - 6z + d = 0                                        

General                                                             

        x                                                           

        y                                                           

        z                                                           

End
