simplex/ex1.sol
Problem:    
Rows:       2
Columns:    4 (3 integer, 0 binary)
Non-zeros:  5
Status:     INTEGER OPTIMAL
Objective:  f = 0 (MINimum)

   No.   Row name        Activity     Lower bound   Upper bound
------ ------------    ------------- ------------- -------------
     1 c1                          3             3             = 
     2 c2                          0             0             = 

   No. Column name       Activity     Lower bound   Upper bound
------ ------------    ------------- ------------- -------------
     1 x            *              0             0               
     2 y            *              3             0               
     3 z            *              3             0               
     4 d                           3             0               

Integer feasibility conditions:

KKT.PE: max.abs.err = 0.00e+00 on row 0
        max.rel.err = 0.00e+00 on row 0
        High quality

KKT.PB: max.abs.err = 0.00e+00 on row 0
        max.rel.err = 0.00e+00 on row 0
        High quality

End of output
